1,05,00,06,36
2,05,22,06,53
3,05,43,07,11
4,06,07,07,47
5,06,18,08,05
6,06,28,07,48
7,06,40,08,18
8,06,48,08,26
9,06,56,08,42
10,07,06,08,29
11,07,18,08,54
12,07,29,08,54
13,07,37,08,57
14,07,49,09,28
15,07,56,09,37
